\ SCIP STATISTICS
\   Problem name     : Bin Packing
\   Variables        : 132 (11 binary, 0 integer, 0 implicit integer, 121 continuous)
\   Constraints      : 22
Minimize
 Obj: +1 y#0 +1 y#1 +1 y#2 +1 y#3 +1 y#4 +1 y#5 +1 y#6 +1 y#7 +1 y#8 +1 y#9 +1 y#10
Subject to
 capacity_con_0_lhs: +83 x#0#0 +36 x#1#0 +21 x#2#0 +91 x#3#0 +96 x#4#0 +31 x#5#0 +4 x#6#0 +90 x#7#0 +94 x#8#0
  +1 x#9#0 +40 x#10#0 -100 y#0 >= -100
 capacity_con_0_rhs: +83 x#0#0 +36 x#1#0 +21 x#2#0 +91 x#3#0 +96 x#4#0 +31 x#5#0 +4 x#6#0 +90 x#7#0 +94 x#8#0
  +1 x#9#0 +40 x#10#0 -100 y#0 <= +0
 capacity_con_1_lhs: +83 x#0#1 +36 x#1#1 +21 x#2#1 +91 x#3#1 +96 x#4#1 +31 x#5#1 +4 x#6#1 +90 x#7#1 +94 x#8#1
  +1 x#9#1 +40 x#10#1 -100 y#1 >= -100
 capacity_con_1_rhs: +83 x#0#1 +36 x#1#1 +21 x#2#1 +91 x#3#1 +96 x#4#1 +31 x#5#1 +4 x#6#1 +90 x#7#1 +94 x#8#1
  +1 x#9#1 +40 x#10#1 -100 y#1 <= +0
 capacity_con_2_lhs: +83 x#0#2 +36 x#1#2 +21 x#2#2 +91 x#3#2 +96 x#4#2 +31 x#5#2 +4 x#6#2 +90 x#7#2 +94 x#8#2
  +1 x#9#2 +40 x#10#2 -100 y#2 >= -100
 capacity_con_2_rhs: +83 x#0#2 +36 x#1#2 +21 x#2#2 +91 x#3#2 +96 x#4#2 +31 x#5#2 +4 x#6#2 +90 x#7#2 +94 x#8#2
  +1 x#9#2 +40 x#10#2 -100 y#2 <= +0
 capacity_con_3_lhs: +83 x#0#3 +36 x#1#3 +21 x#2#3 +91 x#3#3 +96 x#4#3 +31 x#5#3 +4 x#6#3 +90 x#7#3 +94 x#8#3
  +1 x#9#3 +40 x#10#3 -100 y#3 >= -100
 capacity_con_3_rhs: +83 x#0#3 +36 x#1#3 +21 x#2#3 +91 x#3#3 +96 x#4#3 +31 x#5#3 +4 x#6#3 +90 x#7#3 +94 x#8#3
  +1 x#9#3 +40 x#10#3 -100 y#3 <= +0
 capacity_con_4_lhs: +83 x#0#4 +36 x#1#4 +21 x#2#4 +91 x#3#4 +96 x#4#4 +31 x#5#4 +4 x#6#4 +90 x#7#4 +94 x#8#4
  +1 x#9#4 +40 x#10#4 -100 y#4 >= -100
 capacity_con_4_rhs: +83 x#0#4 +36 x#1#4 +21 x#2#4 +91 x#3#4 +96 x#4#4 +31 x#5#4 +4 x#6#4 +90 x#7#4 +94 x#8#4
  +1 x#9#4 +40 x#10#4 -100 y#4 <= +0
 capacity_con_5_lhs: +83 x#0#5 +36 x#1#5 +21 x#2#5 +91 x#3#5 +96 x#4#5 +31 x#5#5 +4 x#6#5 +90 x#7#5 +94 x#8#5
  +1 x#9#5 +40 x#10#5 -100 y#5 >= -100
 capacity_con_5_rhs: +83 x#0#5 +36 x#1#5 +21 x#2#5 +91 x#3#5 +96 x#4#5 +31 x#5#5 +4 x#6#5 +90 x#7#5 +94 x#8#5
  +1 x#9#5 +40 x#10#5 -100 y#5 <= +0
 capacity_con_6_lhs: +83 x#0#6 +36 x#1#6 +21 x#2#6 +91 x#3#6 +96 x#4#6 +31 x#5#6 +4 x#6#6 +90 x#7#6 +94 x#8#6
  +1 x#9#6 +40 x#10#6 -100 y#6 >= -100
 capacity_con_6_rhs: +83 x#0#6 +36 x#1#6 +21 x#2#6 +91 x#3#6 +96 x#4#6 +31 x#5#6 +4 x#6#6 +90 x#7#6 +94 x#8#6
  +1 x#9#6 +40 x#10#6 -100 y#6 <= +0
 capacity_con_7_lhs: +83 x#0#7 +36 x#1#7 +21 x#2#7 +91 x#3#7 +96 x#4#7 +31 x#5#7 +4 x#6#7 +90 x#7#7 +94 x#8#7
  +1 x#9#7 +40 x#10#7 -100 y#7 >= -100
 capacity_con_7_rhs: +83 x#0#7 +36 x#1#7 +21 x#2#7 +91 x#3#7 +96 x#4#7 +31 x#5#7 +4 x#6#7 +90 x#7#7 +94 x#8#7
  +1 x#9#7 +40 x#10#7 -100 y#7 <= +0
 capacity_con_8_lhs: +83 x#0#8 +36 x#1#8 +21 x#2#8 +91 x#3#8 +96 x#4#8 +31 x#5#8 +4 x#6#8 +90 x#7#8 +94 x#8#8
  +1 x#9#8 +40 x#10#8 -100 y#8 >= -100
 capacity_con_8_rhs: +83 x#0#8 +36 x#1#8 +21 x#2#8 +91 x#3#8 +96 x#4#8 +31 x#5#8 +4 x#6#8 +90 x#7#8 +94 x#8#8
  +1 x#9#8 +40 x#10#8 -100 y#8 <= +0
 capacity_con_9_lhs: +83 x#0#9 +36 x#1#9 +21 x#2#9 +91 x#3#9 +96 x#4#9 +31 x#5#9 +4 x#6#9 +90 x#7#9 +94 x#8#9
  +1 x#9#9 +40 x#10#9 -100 y#9 >= -100
 capacity_con_9_rhs: +83 x#0#9 +36 x#1#9 +21 x#2#9 +91 x#3#9 +96 x#4#9 +31 x#5#9 +4 x#6#9 +90 x#7#9 +94 x#8#9
  +1 x#9#9 +40 x#10#9 -100 y#9 <= +0
 capacity_con_10_lhs: +83 x#0#10 +36 x#1#10 +21 x#2#10 +91 x#3#10 +96 x#4#10 +31 x#5#10 +4 x#6#10 +90 x#7#10
  +94 x#8#10 +1 x#9#10 +40 x#10#10 -100 y#10 >= -100
 capacity_con_10_rhs: +83 x#0#10 +36 x#1#10 +21 x#2#10 +91 x#3#10 +96 x#4#10 +31 x#5#10 +4 x#6#10 +90 x#7#10
  +94 x#8#10 +1 x#9#10 +40 x#10#10 -100 y#10 <= +0
 assignment_con_0: +1 x#0#0 +1 x#0#1 +1 x#0#2 +1 x#0#3 +1 x#0#4 +1 x#0#5 +1 x#0#6 +1 x#0#7 +1 x#0#8 +1 x#0#9
  +1 x#0#10 = +1
 assignment_con_1: +1 x#1#0 +1 x#1#1 +1 x#1#2 +1 x#1#3 +1 x#1#4 +1 x#1#5 +1 x#1#6 +1 x#1#7 +1 x#1#8 +1 x#1#9
  +1 x#1#10 = +1
 assignment_con_2: +1 x#2#0 +1 x#2#1 +1 x#2#2 +1 x#2#3 +1 x#2#4 +1 x#2#5 +1 x#2#6 +1 x#2#7 +1 x#2#8 +1 x#2#9
  +1 x#2#10 = +1
 assignment_con_3: +1 x#3#0 +1 x#3#1 +1 x#3#2 +1 x#3#3 +1 x#3#4 +1 x#3#5 +1 x#3#6 +1 x#3#7 +1 x#3#8 +1 x#3#9
  +1 x#3#10 = +1
 assignment_con_4: +1 x#4#0 +1 x#4#1 +1 x#4#2 +1 x#4#3 +1 x#4#4 +1 x#4#5 +1 x#4#6 +1 x#4#7 +1 x#4#8 +1 x#4#9
  +1 x#4#10 = +1
 assignment_con_5: +1 x#5#0 +1 x#5#1 +1 x#5#2 +1 x#5#3 +1 x#5#4 +1 x#5#5 +1 x#5#6 +1 x#5#7 +1 x#5#8 +1 x#5#9
  +1 x#5#10 = +1
 assignment_con_6: +1 x#6#0 +1 x#6#1 +1 x#6#2 +1 x#6#3 +1 x#6#4 +1 x#6#5 +1 x#6#6 +1 x#6#7 +1 x#6#8 +1 x#6#9
  +1 x#6#10 = +1
 assignment_con_7: +1 x#7#0 +1 x#7#1 +1 x#7#2 +1 x#7#3 +1 x#7#4 +1 x#7#5 +1 x#7#6 +1 x#7#7 +1 x#7#8 +1 x#7#9
  +1 x#7#10 = +1
 assignment_con_8: +1 x#8#0 +1 x#8#1 +1 x#8#2 +1 x#8#3 +1 x#8#4 +1 x#8#5 +1 x#8#6 +1 x#8#7 +1 x#8#8 +1 x#8#9
  +1 x#8#10 = +1
 assignment_con_9: +1 x#9#0 +1 x#9#1 +1 x#9#2 +1 x#9#3 +1 x#9#4 +1 x#9#5 +1 x#9#6 +1 x#9#7 +1 x#9#8 +1 x#9#9
  +1 x#9#10 = +1
 assignment_con_10: +1 x#10#0 +1 x#10#1 +1 x#10#2 +1 x#10#3 +1 x#10#4 +1 x#10#5 +1 x#10#6 +1 x#10#7 +1 x#10#8
  +1 x#10#9 +1 x#10#10 = +1
Bounds
 0 <= y#0 <= 1
 0 <= y#1 <= 1
 0 <= y#2 <= 1
 0 <= y#3 <= 1
 0 <= y#4 <= 1
 0 <= y#5 <= 1
 0 <= y#6 <= 1
 0 <= y#7 <= 1
 0 <= y#8 <= 1
 0 <= y#9 <= 1
 0 <= y#10 <= 1
 0 <= x#1#0 <= 2147483647
 0 <= x#1#1 <= 2147483647
 0 <= x#1#2 <= 2147483647
 0 <= x#1#3 <= 2147483647
 0 <= x#1#4 <= 2147483647
 0 <= x#1#5 <= 2147483647
 0 <= x#1#6 <= 2147483647
 0 <= x#1#7 <= 2147483647
 0 <= x#1#8 <= 2147483647
 0 <= x#1#9 <= 2147483647
 0 <= x#1#10 <= 2147483647
 0 <= x#2#0 <= 2147483647
 0 <= x#2#1 <= 2147483647
 0 <= x#2#2 <= 2147483647
 0 <= x#2#3 <= 2147483647
 0 <= x#2#4 <= 2147483647
 0 <= x#2#5 <= 2147483647
 0 <= x#2#6 <= 2147483647
 0 <= x#2#7 <= 2147483647
 0 <= x#2#8 <= 2147483647
 0 <= x#2#9 <= 2147483647
 0 <= x#2#10 <= 2147483647
 0 <= x#3#0 <= 2147483647
 0 <= x#3#1 <= 2147483647
 0 <= x#3#2 <= 2147483647
 0 <= x#3#3 <= 2147483647
 0 <= x#3#4 <= 2147483647
 0 <= x#3#5 <= 2147483647
 0 <= x#3#6 <= 2147483647
 0 <= x#3#7 <= 2147483647
 0 <= x#3#8 <= 2147483647
 0 <= x#3#9 <= 2147483647
 0 <= x#3#10 <= 2147483647
 0 <= x#4#0 <= 2147483647
 0 <= x#4#1 <= 2147483647
 0 <= x#4#2 <= 2147483647
 0 <= x#4#3 <= 2147483647
 0 <= x#4#4 <= 2147483647
 0 <= x#4#5 <= 2147483647
 0 <= x#4#6 <= 2147483647
 0 <= x#4#7 <= 2147483647
 0 <= x#4#8 <= 2147483647
 0 <= x#4#9 <= 2147483647
 0 <= x#4#10 <= 2147483647
 0 <= x#5#0 <= 2147483647
 0 <= x#5#1 <= 2147483647
 0 <= x#5#2 <= 2147483647
 0 <= x#5#3 <= 2147483647
 0 <= x#5#4 <= 2147483647
 0 <= x#5#5 <= 2147483647
 0 <= x#5#6 <= 2147483647
 0 <= x#5#7 <= 2147483647
 0 <= x#5#8 <= 2147483647
 0 <= x#5#9 <= 2147483647
 0 <= x#5#10 <= 2147483647
 0 <= x#6#0 <= 2147483647
 0 <= x#6#1 <= 2147483647
 0 <= x#6#2 <= 2147483647
 0 <= x#6#3 <= 2147483647
 0 <= x#6#4 <= 2147483647
 0 <= x#6#5 <= 2147483647
 0 <= x#6#6 <= 2147483647
 0 <= x#6#7 <= 2147483647
 0 <= x#6#8 <= 2147483647
 0 <= x#6#9 <= 2147483647
 0 <= x#6#10 <= 2147483647
 0 <= x#7#0 <= 2147483647
 0 <= x#7#1 <= 2147483647
 0 <= x#7#2 <= 2147483647
 0 <= x#7#3 <= 2147483647
 0 <= x#7#4 <= 2147483647
 0 <= x#7#5 <= 2147483647
 0 <= x#7#6 <= 2147483647
 0 <= x#7#7 <= 2147483647
 0 <= x#7#8 <= 2147483647
 0 <= x#7#9 <= 2147483647
 0 <= x#7#10 <= 2147483647
 0 <= x#8#0 <= 2147483647
 0 <= x#8#1 <= 2147483647
 0 <= x#8#2 <= 2147483647
 0 <= x#8#3 <= 2147483647
 0 <= x#8#4 <= 2147483647
 0 <= x#8#5 <= 2147483647
 0 <= x#8#6 <= 2147483647
 0 <= x#8#7 <= 2147483647
 0 <= x#8#8 <= 2147483647
 0 <= x#8#9 <= 2147483647
 0 <= x#8#10 <= 2147483647
 0 <= x#9#0 <= 2147483647
 0 <= x#9#1 <= 2147483647
 0 <= x#9#2 <= 2147483647
 0 <= x#9#3 <= 2147483647
 0 <= x#9#4 <= 2147483647
 0 <= x#9#5 <= 2147483647
 0 <= x#9#6 <= 2147483647
 0 <= x#9#7 <= 2147483647
 0 <= x#9#8 <= 2147483647
 0 <= x#9#9 <= 2147483647
 0 <= x#9#10 <= 2147483647
 0 <= x#10#0 <= 2147483647
 0 <= x#10#1 <= 2147483647
 0 <= x#10#2 <= 2147483647
 0 <= x#10#3 <= 2147483647
 0 <= x#10#4 <= 2147483647
 0 <= x#10#5 <= 2147483647
 0 <= x#10#6 <= 2147483647
 0 <= x#10#7 <= 2147483647
 0 <= x#10#8 <= 2147483647
 0 <= x#10#9 <= 2147483647
 0 <= x#10#10 <= 2147483647
 0 <= x#0#0 <= 2147483647
 0 <= x#0#1 <= 2147483647
 0 <= x#0#2 <= 2147483647
 0 <= x#0#3 <= 2147483647
 0 <= x#0#4 <= 2147483647
 0 <= x#0#5 <= 2147483647
 0 <= x#0#6 <= 2147483647
 0 <= x#0#7 <= 2147483647
 0 <= x#0#8 <= 2147483647
 0 <= x#0#9 <= 2147483647
 0 <= x#0#10 <= 2147483647
Binaries
 y#0 y#1 y#2 y#3 y#4 y#5 y#6 y#7 y#8 y#9 y#10
End
